###############################################
# LAMMPS script for a DNA and proteins
###############################################

###
# Box and units  (use LJ units and periodic boundaries)
###

units lj                 # use lennard-jones (i.e. dimensionless) units
atom_style angle         # atoms with bonds and angles

boundary p p p           # all boundaries are periodic

###
# Pair interactions require lists of neighbours to be calculated
###
neighbor 1.9 bin
neigh_modify every 1 delay 1 check yes


### 
# READ "start" data file 
###
read_data DNA_prot.equlilb_data

### 
# Reset timestep 
###
reset_timestep 0 

###
# Define groups 
###
group all type 1 2 3 4     # all group
group polymer type 1       # group for polymer
group sphereprot type 2    # group for sphere proteins
group dumbprot type 3 4    # group for dumbell proteins

# dumbprot will be rigid bodies
# need a group for all atoms not in rigid bodies
group notrigids union polymer sphereprot


###
# Dump configurations
###
dump dum1 all custom 5000 dump_main.DNA_prot id type x y z ix iy iz

###
# Set up interactions 
###

## angles
angle_style  cosine
angle_coeff   1  4.0

## Between bonded atoms
bond_style   fene
special_bonds fene #<=== I M P O R T A N T prevents LJ from being counted twice
# For style FENE, specify:
#   * bond type
#   * K (energy/distance^2) 
#   * R0 (distance)
#   * epsilon
#   * sigma
bond_coeff   1    30.0   1.6   1.0   1.0


## Between non-bonded atoms
pair_style      lj/cut 1.12246152962189
pair_modify shift yes        # option to ensure energy is calculated corectly
#  pair_coeff for LJ, specify 4:
#    * atom type interacting with
#    * atom type
#    * energy
#    * mean diameter of the two atom types
#    * cutoff

# start with all atoms interacting the same
pair_coeff  * * 1.0 1.0 1.12246152962189



###
# Set up fixes
###
variable seed equal 54654651     # a seed for the thermostat
variable seed2 equal 8754445     # a 2nd seed for the other thermostat

# fix nve and lagevin as usual for the DNA and sphere prots only
fix myFIX1 notrigids nve                             # NVE integrator
fix myFIX2 notrigids langevin   1.0 1.0 1.0 ${seed}  # langevin thermostat
#      ^
#      |
#  group name


# and fix rigid/small for the rigid bodies
fix myFIX3 dumbprot rigid/small molecule langevin 1.0 1.0 1.0 ${seed2}
# use a different seed to above
# this include nve and langevin fixed for the centre of mass of each body

# this must come after the pair_coeff lines:
neigh_modify exclude molecule/intra dumbprot
# it tells lammps not to calculate forces between atoms in the
# same rigid bodies (these will not do anything anyway)

##### Output thermodynamic info  (temperature, energy, pressure, etc.) #####
thermo 10000
thermo_style   custom   step  temp  epair  emol  press  vol
############################################################################

###
# set timestep of integrator
###
timestep 0.01

###
# run integration for a number of steps to equilibrate with soft potentials
# to remove any overlaps
###
 
run 100000

###
# now switch on some attractive interactions
###

pair_style hybrid lj/cut 1.12246152962189 morse 1.0
pair_modify shift yes  
neigh_modify exclude molecule/intra dumbprot

# set all interacting the same to start
pair_coeff  * * lj/cut 1.0 1.0 1.12246152962189

# e.g. have sphere proteins stick to each other
pair_coeff  2 2 lj/cut 5.0 1.0 1.8

# have one side of the dumbells stick to the polymer
# by going inside it. More potential parameters are:
#   -- energy
#   -- shape
#   -- distance - set as 0 to allow it to go inside
#   -- cutoff
pair_coeff 1 3 morse 12.0 1.75 0.0 0.9

###
# now do a longer run
###

run 500000


write_data DNA_prot.main_end_data nocoeff
